# Solution for model F-JSSP-SDST
# Objective value = 303
B0(17) 0
B1(17) 1
B2(16) 1
B3(16) 0
B4(18) 1
B5(18) 0
B6(17) 0
B7(17) 1
B8(13) 1
B9(13) 0
B10(12) 0
B11(12) 1
B12(0) 0
B13(4) 0
B14(4) 0
B15(4) 0
B16(4) 0
B17(4) 0
B18(4) 0
B19(0) 0
B20(4) 1
B21(4) 0
B22(4) 1
B23(4) 0
B24(0) 0
B25(0) 0
B26(0) 0
B27(4) 0
B28(4) 1
B29(4) 0
B30(0) 0
B31(0) 0
B32(4) 0
B33(0) 0
B34(4) 0
B35(4) 1
B36(0) 0
B37(0) 0
B38(0) 0
B39(0) 0
B40(0) 0
B41(0) 0
B42(0) 0
B43(0) 0
B44(0) 0
B45(0) 0
B46(0) 0
B47(0) 0
I48(18) 0
I49(18) 0
I50(19) 62
I51(19) 0
I52(18) 24
I53(18) 0
I54(19) 0
I55(19) 80
I56(14) 0
I57(14) 0
I58(15) 0
I59(15) 39
I60(1) 303
